p cnf 32 340
1 5 9 13 17 21 25 29 0
2 6 10 14 18 22 26 30 0
3 7 11 15 19 23 27 31 0
4 8 12 16 20 24 28 32 0
-2 -1 0
-3 -1 0
-4 -1 0
-3 -2 0
-4 -2 0
-4 -3 0
-6 -5 0
-7 -5 0
-8 -5 0
-7 -6 0
-8 -6 0
-8 -7 0
-10 -9 0
-11 -9 0
-12 -9 0
-11 -10 0
-12 -10 0
-12 -11 0
-14 -13 0
-15 -13 0
-16 -13 0
-15 -14 0
-16 -14 0
-16 -15 0
-18 -17 0
-19 -17 0
-20 -17 0
-19 -18 0
-20 -18 0
-20 -19 0
-22 -21 0
-23 -21 0
-24 -21 0
-23 -22 0
-24 -22 0
-24 -23 0
-26 -25 0
-27 -25 0
-28 -25 0
-27 -26 0
-28 -26 0
-28 -27 0
-30 -29 0
-31 -29 0
-32 -29 0
-31 -30 0
-32 -30 0
-32 -31 0
-1 -5 0
-1 -9 0
-1 -13 0
-1 -17 0
-1 -21 0
-1 -25 0
-1 -29 0
-5 -9 0
-5 -13 0
-5 -17 0
-5 -21 0
-5 -25 0
-5 -29 0
-9 -13 0
-9 -17 0
-9 -21 0
-9 -25 0
-9 -29 0
-13 -17 0
-13 -21 0
-13 -25 0
-13 -29 0
-17 -21 0
-17 -25 0
-17 -29 0
-21 -25 0
-21 -29 0
-25 -29 0
-2 -6 0
-2 -10 0
-2 -14 0
-2 -18 0
-2 -22 0
-2 -26 0
-2 -30 0
-6 -10 0
-6 -14 0
-6 -18 0
-6 -22 0
-6 -26 0
-6 -30 0
-10 -14 0
-10 -18 0
-10 -22 0
-10 -26 0
-10 -30 0
-14 -18 0
-14 -22 0
-14 -26 0
-14 -30 0
-18 -22 0
-18 -26 0
-18 -30 0
-22 -26 0
-22 -30 0
-26 -30 0
-3 -7 0
-3 -11 0
-3 -15 0
-3 -19 0
-3 -23 0
-3 -27 0
-3 -31 0
-7 -11 0
-7 -15 0
-7 -19 0
-7 -23 0
-7 -27 0
-7 -31 0
-11 -15 0
-11 -19 0
-11 -23 0
-11 -27 0
-11 -31 0
-15 -19 0
-15 -23 0
-15 -27 0
-15 -31 0
-19 -23 0
-19 -27 0
-19 -31 0
-23 -27 0
-23 -31 0
-27 -31 0
-4 -8 0
-4 -12 0
-4 -16 0
-4 -20 0
-4 -24 0
-4 -28 0
-4 -32 0
-8 -12 0
-8 -16 0
-8 -20 0
-8 -24 0
-8 -28 0
-8 -32 0
-12 -16 0
-12 -20 0
-12 -24 0
-12 -28 0
-12 -32 0
-16 -20 0
-16 -24 0
-16 -28 0
-16 -32 0
-20 -24 0
-20 -28 0
-20 -32 0
-24 -28 0
-24 -32 0
-28 -32 0
-1 -9 0
-1 -10 0
-1 -11 0
-1 -12 0
-2 -9 0
-2 -10 0
-2 -11 0
-2 -12 0
-3 -9 0
-3 -10 0
-3 -11 0
-3 -12 0
-4 -9 0
-4 -10 0
-4 -11 0
-4 -12 0
-1 -25 0
-1 -26 0
-1 -27 0
-1 -28 0
-2 -25 0
-2 -26 0
-2 -27 0
-2 -28 0
-3 -25 0
-3 -26 0
-3 -27 0
-3 -28 0
-4 -25 0
-4 -26 0
-4 -27 0
-4 -28 0
-1 -29 0
-1 -30 0
-1 -31 0
-1 -32 0
-2 -29 0
-2 -30 0
-2 -31 0
-2 -32 0
-3 -29 0
-3 -30 0
-3 -31 0
-3 -32 0
-4 -29 0
-4 -30 0
-4 -31 0
-4 -32 0
-5 -29 0
-5 -30 0
-5 -31 0
-5 -32 0
-6 -29 0
-6 -30 0
-6 -31 0
-6 -32 0
-7 -29 0
-7 -30 0
-7 -31 0
-7 -32 0
-8 -29 0
-8 -30 0
-8 -31 0
-8 -32 0
-9 -13 0
-9 -14 0
-9 -15 0
-9 -16 0
-10 -13 0
-10 -14 0
-10 -15 0
-10 -16 0
-11 -13 0
-11 -14 0
-11 -15 0
-11 -16 0
-12 -13 0
-12 -14 0
-12 -15 0
-12 -16 0
-9 -17 0
-9 -18 0
-9 -19 0
-9 -20 0
-10 -17 0
-10 -18 0
-10 -19 0
-10 -20 0
-11 -17 0
-11 -18 0
-11 -19 0
-11 -20 0
-12 -17 0
-12 -18 0
-12 -19 0
-12 -20 0
-9 -21 0
-9 -22 0
-9 -23 0
-9 -24 0
-10 -21 0
-10 -22 0
-10 -23 0
-10 -24 0
-11 -21 0
-11 -22 0
-11 -23 0
-11 -24 0
-12 -21 0
-12 -22 0
-12 -23 0
-12 -24 0
-13 -17 0
-13 -18 0
-13 -19 0
-13 -20 0
-14 -17 0
-14 -18 0
-14 -19 0
-14 -20 0
-15 -17 0
-15 -18 0
-15 -19 0
-15 -20 0
-16 -17 0
-16 -18 0
-16 -19 0
-16 -20 0
-21 -25 0
-21 -26 0
-21 -27 0
-21 -28 0
-22 -25 0
-22 -26 0
-22 -27 0
-22 -28 0
-23 -25 0
-23 -26 0
-23 -27 0
-23 -28 0
-24 -25 0
-24 -26 0
-24 -27 0
-24 -28 0
-21 -29 0
-21 -30 0
-21 -31 0
-21 -32 0
-22 -29 0
-22 -30 0
-22 -31 0
-22 -32 0
-23 -29 0
-23 -30 0
-23 -31 0
-23 -32 0
-24 -29 0
-24 -30 0
-24 -31 0
-24 -32 0
-25 -29 0
-25 -30 0
-25 -31 0
-25 -32 0
-26 -29 0
-26 -30 0
-26 -31 0
-26 -32 0
-27 -29 0
-27 -30 0
-27 -31 0
-27 -32 0
-28 -29 0
-28 -30 0
-28 -31 0
-28 -32 0
